succeed=True
[CUDA] cuda: usage: 5.33 GB
0 :  {link #0 : 1}, {link #1 : 2}, {link #2 : 3},
1 :  {link #0 : 2}, {link #1 : 3}, {link #2 : 0},
2 :  {link #0 : 3}, {link #1 : 0}, {link #2 : 1},
3 :  {link #0 : 0}, {link #1 : 1}, {link #2 : 2},
0 :  {link #0 : 1}, {link #1 : 2}, {link #2 : 3},
1 :  {link #0 : 2}, {link #1 : 3}, {link #2 : 0},
2 :  {link #0 : 3}, {link #1 : 0}, {link #2 : 1},
3 :  {link #0 : 0}, {link #1 : 1}, {link #2 : 2},
0 :  {link #0 : 1}, {link #1 : 2}, {link #2 : 3},
1 :  {link #0 : 2}, {link #1 : 3}, {link #2 : 0},
2 :  {link #0 : 3}, {link #1 : 0}, {link #2 : 1},
3 :  {link #0 : 0}, {link #1 : 1}, {link #2 : 2},
0 : local 80, cpu 0 {link #0 : g1 0}, {link #1 : g2 0}, {link #2 : g3 0},
1 : local 80, cpu 0 {link #0 : g2 0}, {link #1 : g3 0}, {link #2 : g0 0},
2 : local 80, cpu 0 {link #0 : g3 0}, {link #1 : g0 0}, {link #2 : g1 0},
3 : local 80, cpu 0 {link #0 : g0 0}, {link #1 : g1 0}, {link #2 : g2 0},
0 : local 80, cpu 0 {link #0 : g1 0}, {link #1 : g2 0}, {link #2 : g3 0},
1 : local 80, cpu 0 {link #0 : g2 0}, {link #1 : g3 0}, {link #2 : g0 0},
2 : local 80, cpu 0 {link #0 : g3 0}, {link #1 : g0 0}, {link #2 : g1 0},
3 : local 80, cpu 0 {link #0 : g0 0}, {link #1 : g1 0}, {link #2 : g2 0},
0 : local 80, cpu 0 {link #0 : g1 0}, {link #1 : g2 0}, {link #2 : g3 0},
1 : local 80, cpu 0 {link #0 : g2 0}, {link #1 : g3 0}, {link #2 : g0 0},
2 : local 80, cpu 0 {link #0 : g3 0}, {link #1 : g0 0}, {link #2 : g1 0},
3 : local 80, cpu 0 {link #0 : g0 0}, {link #1 : g1 0}, {link #2 : g2 0},
0 :  {link #0 : 1}, {link #1 : 2}, {link #2 : 3},
1 :  {link #0 : 2}, {link #1 : 3}, {link #2 : 0},
2 :  {link #0 : 3}, {link #1 : 0}, {link #2 : 1},
3 :  {link #0 : 0}, {link #1 : 1}, {link #2 : 2},
0 : local 80, cpu 0 {link #0 : g1 0}, {link #1 : g2 0}, {link #2 : g3 0},
1 : local 80, cpu 0 {link #0 : g2 0}, {link #1 : g3 0}, {link #2 : g0 0},
2 : local 80, cpu 0 {link #0 : g3 0}, {link #1 : g0 0}, {link #2 : g1 0},
3 : local 80, cpu 0 {link #0 : g0 0}, {link #1 : g1 0}, {link #2 : g2 0},
Set parameter WLSAccessID
Set parameter WLSSecret
Set parameter LicenseID
Set parameter TimeLimit to value 200
Set parameter MIPGap to value 0.05
Set parameter LogFile to value "cppsolver.log"
Set parameter Threads to value 40
Academic license - for non-commercial use only - registered to xiaoniu.sxn@sjtu.edu.cn
Gurobi Optimizer version 9.5.1 build v9.5.1rc2 (linux64)
Thread count: 40 physical cores, 80 logical processors, using up to 40 threads
Academic license - for non-commercial use only - registered to xiaoniu.sxn@sjtu.edu.cn
Optimize a model with 8604 rows, 2810 columns and 23124 nonzeros
Model fingerprint: 0x3eccb10c
Variable types: 5 continuous, 2805 integer (2805 binary)
Coefficient statistics:
  Matrix range     [8e-09, 1e+03]
  Objective range  [1e+00, 1e+00]
  Bounds range     [1e+00, 1e+00]
  RHS range        [1e+00, 3e+02]
Found heuristic solution: objective 14508.994214
Presolve removed 6248 rows and 311 columns
Presolve time: 0.02s
Presolved: 2356 rows, 2499 columns, 7056 nonzeros
Variable types: 0 continuous, 2499 integer (2499 binary)
Found heuristic solution: objective 11589.330723

Root relaxation: objective 7.451245e+03, 1852 iterations, 0.02 seconds (0.01 work units)

    Nodes    |    Current Node    |     Objective Bounds      |     Work
 Expl Unexpl |  Obj  Depth IntInf | Incumbent    BestBd   Gap | It/Node Time

     0     0 7451.24458    0   25 11589.3307 7451.24458  35.7%     -    0s
H    0     0                    7815.9594004 7451.24458  4.67%     -    0s

Explored 1 nodes (3022 simplex iterations) in 0.07 seconds (0.05 work units)
Thread count was 40 (of 80 available processors)

Solution count 3: 7815.96 11589.3 14509 

Optimal solution found (tolerance 5.00e-02)
Best objective 7.815959400377e+03, best bound 7.451244584804e+03, gap 4.6663%
coll_cache:optimal_local_rate=0.140971,0.120822,0.120206,0.130432,
coll_cache:optimal_remote_rate=0.332433,0.352582,0.353198,0.342972,
coll_cache:optimal_cpu_rate=0.526596,0.526596,0.526596,0.526596,
z=7815.96
test_result:init:feat_nbytes=67182966784
test_result:init:cache_nbytes=1410841600
test_result:init:feat_nbytes=67182966784
test_result:init:cache_nbytes=1410841600
test_result:init:feat_nbytes=67182966784
test_result:init:cache_nbytes=1410841600
test_result:init:feat_nbytes=67182966784
test_result:init:cache_nbytes=1410841600
    [Step(average) Profiler Level 1 E3 S123]
        L1  sample           0.003583 | send           0.000000
        L1  recv             0.000000 | copy           0.054672 | convert time 0.000000 | train  0.009083
        L1  feature nbytes    1.13 GB | label nbytes 0.00 Bytes
        L1  id nbytes      0.00 Bytes | graph nbytes 0.00 Bytes
        L1  miss nbytes    0.00 Bytes | remote nbytes 0.00 Bytes
        L1  num nodes               0 | num samples           0
        L1  seq duration     0.000000 | refresh duration   0.000000
    [Step(average) Profiler Level 2 E3 S123]
        L2  shuffle     0.000000 | core sample  0.000000 | id remap        0.000000
        L2  graph copy  0.000000 | id copy      0.000000 | cache feat copy 0.054672
        L2  last layer sample time 0.000000 | size 0.000000
    [Step(average) Profiler Level 3 E3 S123]
        L3  khop sample coo  0.000000 | khop sort coo      0.000000 | khop count edge     0.000000 | khop compact edge 0.000000
        L3  walk sample coo  0.000000 | walk topk total    0.000000 | walk topk step1     0.000000 | walk topk step2   0.000000
        L3  walk topk step3  0.000000 | walk topk step4    0.000000 | walk topk step5     0.000000
        L3  walk topk step6  0.000000 | walk topk step7    0.000000
        L3  remap unique     0.000000 | remap populate     0.000000 | remap mapnode       0.000000 | remap mapedge     0.000000
        L3  cache get_index  0.000725 | cache copy_index   0.000000 | cache extract_miss  0.000000
        L3  cache copy_miss  0.000000 | cache combine_miss 0.000000 | cache combine cache 0.053903 | cache combine remote 0.000000
        L3  label extract  0.000000
    [Profiler Level Percentiles E3 S123]
        p50.00_tail_logl2featcopy=0.054712
        p90.00_tail_logl2featcopy=0.055106
        p95.00_tail_logl2featcopy=0.055246
        p99.00_tail_logl2featcopy=0.059784
        p99.90_tail_logl2featcopy=0.067798
[CUDA] cuda: usage: 10.09 GB
config:eval_tsp="2023-04-14 19:59:56"
config:num_worker=4
config:num_intra_size=4
config:root_dir=/nvme/songxiaoniu/graph-learning/wholegraph
config:graph_name=com-friendster
config:epochs=4
config:batchsize=8000
config:skip_epoch=2
config:local_step=250
config:presc_epoch=2
config:neighbors=10,25
config:hiddensize=256
config:num_layer=2
config:model=sage
config:framework=dgl
config:dataloaderworkers=0
config:dropout=0.5
config:lr=0.003
config:use_nccl=False
config:use_amp=True
config:use_collcache=True
config:cache_percentage=0.02
config:cache_policy=coll_cache_asymm_link
config:omp_thread_num=40
config:unsupervised=False
config:classnum=100
config:global_barrier=<multiprocessing.synchronize.Barrier object at 0x7f1a66e5b430>
config:worker_id=0
creating_intra_node_communicator root=0, local_size=4, world_size=4
Rank=0, Graph loaded.
!!!!Train_dataloader(with 31 items) enumerate latency: 0.526679277420044
!!!!Train_data_list(with 31 items) enumerate latency: 6.198883056640625e-06, transfer latency: 0.44345688819885254
epoch=4 total_steps=124
presamping
presamping takes 2.209412097930908
start training...
[Epoch 0], time=3.2082881927490234, loss=4.427171230316162
[Epoch 1], time=2.0906107425689697, loss=4.243779182434082
[Epoch 2], time=2.09035325050354, loss=4.061141014099121
[Epoch 3], time=2.0873568058013916, loss=3.879349946975708
|===========================================================================|
|                  PyTorch CUDA memory summary, device ID 0                 |
|---------------------------------------------------------------------------|
|            CUDA OOMs: 0            |        cudaMalloc retries: 0         |
|===========================================================================|
|        Metric         | Cur Usage  | Peak Usage | Tot Alloc  | Tot Freed  |
|---------------------------------------------------------------------------|
| Allocated memory      |   75904 KB |  748846 KB |  202278 MB |  202204 MB |
|       from large pool |   69199 KB |  742671 KB |  200422 MB |  200354 MB |
|       from small pool |    6704 KB |    8755 KB |    1856 MB |    1849 MB |
|---------------------------------------------------------------------------|
| Active memory         |   75904 KB |  748846 KB |  202278 MB |  202204 MB |
|       from large pool |   69199 KB |  742671 KB |  200422 MB |  200354 MB |
|       from small pool |    6704 KB |    8755 KB |    1856 MB |    1849 MB |
|---------------------------------------------------------------------------|
| GPU reserved memory   |    1942 MB |    1942 MB |    1942 MB |       0 B  |
|       from large pool |    1930 MB |    1930 MB |    1930 MB |       0 B  |
|       from small pool |      12 MB |      12 MB |      12 MB |       0 B  |
|---------------------------------------------------------------------------|
| Non-releasable memory |   24448 KB |  681408 KB |  186871 MB |  186847 MB |
|       from large pool |   20912 KB |  677554 KB |  184991 MB |  184971 MB |
|       from small pool |    3535 KB |    6795 KB |    1880 MB |    1876 MB |
|---------------------------------------------------------------------------|
| Allocations           |      55    |      69    |   19716    |   19661    |
|       from large pool |      11    |      22    |    7154    |    7143    |
|       from small pool |      44    |      49    |   12562    |   12518    |
|---------------------------------------------------------------------------|
| Active allocs         |      55    |      69    |   19716    |   19661    |
|       from large pool |      11    |      22    |    7154    |    7143    |
|       from small pool |      44    |      49    |   12562    |   12518    |
|---------------------------------------------------------------------------|
| GPU reserved segments |      18    |      18    |      18    |       0    |
|       from large pool |      12    |      12    |      12    |       0    |
|       from small pool |       6    |       6    |       6    |       0    |
|---------------------------------------------------------------------------|
| Non-releasable allocs |      19    |      33    |    7342    |    7323    |
|       from large pool |       3    |      14    |    3937    |    3934    |
|       from small pool |      16    |      23    |    3405    |    3389    |
|---------------------------------------------------------------------------|
| Oversize allocations  |       0    |       0    |       0    |       0    |
|---------------------------------------------------------------------------|
| Oversize GPU segments |       0    |       0    |       0    |       0    |
|===========================================================================|

[TRAIN_TIME] train time is 9.489256 seconds
[EPOCH_TIME] 2.372314 seconds, maybe large due to not enough epoch skipped.
[EPOCH_TIME] 2.088997 seconds
Rank=2, Graph loaded.
!!!!Train_dataloader(with 31 items) enumerate latency: 0.5378906726837158
!!!!Train_data_list(with 31 items) enumerate latency: 6.198883056640625e-06, transfer latency: 0.45630574226379395
presamping
presamping takes 2.401844024658203
Rank=3, Graph loaded.
!!!!Train_dataloader(with 31 items) enumerate latency: 0.5276999473571777
!!!!Train_data_list(with 31 items) enumerate latency: 5.9604644775390625e-06, transfer latency: 0.4492073059082031
presamping
presamping takes 2.396540880203247
Rank=1, Graph loaded.
!!!!Train_dataloader(with 31 items) enumerate latency: 0.5094430446624756
!!!!Train_data_list(with 31 items) enumerate latency: 7.3909759521484375e-06, transfer latency: 0.4306826591491699
presamping
presamping takes 1.9467830657958984

